NAME : mEgtspf.63.tour
COMMENT : Length = 63
COMMENT : Found by GLKH [Keld Helsgaun] Mon Apr 28 21:37:34 2025
TYPE : TOUR
DIMENSION : 20
TOUR_SECTION
1
13
5
9
22
36
4
27
31
10
7
2
8
39
48
45
6
26
3
15
-1
EOF
